&control
    calculation='scf',
    restart_mode='from_scratch',
    prefix='vacancy',
    pseudo_dir = '/home/lucia/Programmi/qe-6.7/pseudo',        
    outdir='./outvac',
/
 &system
    ibrav=  4, celldm(1) =13.9628670, celldm(3)=2.0, nat=17, ntyp= 1,
    ecutwfc =35, ecutrho =200 ,    
    occupations='smearing', smearing='gaussian', degauss=0.01,
    nspin=2, starting_magnetization=0.1
 /
 &electrons
    conv_thr = 1.0d-8
 /
 &ions
 /
ATOMIC_SPECIES
C  12.0107 C.pbe-n-rrkjus_psl.1.0.0.UPF 
ATOMIC_POSITIONS {angstrom}
  C             0.0300580264        0.0185288217       -0.0000000860
C            -1.2451030957        2.1358190070       -0.0000001058
C            -2.4481236095        4.2821768282       -0.0000000578
C             2.4421728297        0.0042054333        0.0000000723
C             1.2451463427        2.0438250524        0.0000001755
C            -0.0645955452        4.3281736140        0.0000000453
C             4.9368899678        0.0119892386        0.0000001170
C             3.7165389029        2.1436819906        0.0000000502
C             2.5241459101        4.3100185202       -0.0000001340
C            -0.0095784314        1.4308213719        0.0000001029
C            -1.2329446646        3.5278382298       -0.0000003509
C            -2.4578416462        5.6911495101       -0.0000000309
C             2.4583807818        1.4389700067       -0.0000003306
C             0.0298519832        5.6656614611        0.0000005069
C             4.9309108775        1.4225197016        0.0000000296
C             3.6672147649        3.5186078420        0.0000002737
C             2.4119389499        5.6624775049       -0.0000002776
K_POINTS {automatic}
3 3 1 0 0 0
